param n := 101 ;
param K := 10 ;
param C := 200 ;
param d :=
1 0
2 10.0
3 30.0
4 10.0
5 10.0
6 10.0
7 20.0
8 20.0
9 20.0
10 10.0
11 10.0
12 10.0
13 20.0
14 30.0
15 10.0
16 40.0
17 40.0
18 20.0
19 20.0
20 10.0
21 10.0
22 20.0
23 20.0
24 10.0
25 10.0
26 40.0
27 10.0
28 10.0
29 20.0
30 10.0
31 10.0
32 20.0
33 30.0
34 40.0
35 20.0
36 10.0
37 10.0
38 20.0
39 30.0
40 20.0
41 10.0
42 10.0
43 20.0
44 10.0
45 10.0
46 10.0
47 30.0
48 10.0
49 10.0
50 10.0
51 10.0
52 10.0
53 10.0
54 20.0
55 40.0
56 10.0
57 30.0
58 40.0
59 30.0
60 10.0
61 20.0
62 10.0
63 20.0
64 50.0
65 10.0
66 10.0
67 10.0
68 10.0
69 10.0
70 10.0
71 30.0
72 20.0
73 10.0
74 10.0
75 50.0
76 20.0
77 10.0
78 10.0
79 20.0
80 10.0
81 10.0
82 30.0
83 20.0
84 10.0
85 20.0
86 30.0
87 10.0
88 20.0
89 30.0
90 10.0
91 10.0
92 10.0
93 20.0
94 40.0
95 10.0
96 30.0
97 10.0
98 30.0
99 20.0
100 10.0
101 20.0
;
param c : 1 2 3 4 5 6 7 8 9 10 11 12 13 14 15 16 17 18 19 20 21 22 23 24 25 26 27 28 29 30 31 32 33 34 35 36 37 38 39 40 41 42 43 44 45 46 47 48 49 50 51 52 53 54 55 56 57 58 59 60 61 62 63 64 65 66 67 68 69 70 71 72 73 74 75 76 77 78 79 80 81 82 83 84 85 86 87 88 89 90 91 92 93 94 95 96 97 98 99 100 101 :=
1 64 78 80 77 78 76 79 77 78 80 77 79 93 85 93 89 93 85 85 89 64 65 65 68 64 65 68 65 68 64 68 53 56 56 60 53 60 56 56 60 50 51 51 53 50 50 51 53 50 53 51 50 53 40 41 42 40 42 40 42 40 50 53 56 50 56 53 56 50 53 50 53 50 50 53 76 53 50 53 50 47 53 68 68 70 72 68 68 72 70 68 72 93 93 91 89 89 93 85 89 93
2 67 81 83 79 81 79 82 79 81 83 79 82 96 87 96 91 96 87 87 91 67 68 68 71 67 68 71 68 71 67 71 57 60 60 63 57 63 60 60 63 54 55 55 57 54 54 55 57 54 57 55 54 57 45 46 47 45 47 45 47 45 54 57 60 54 60 57 60 54 57 54 57 54 54 57 79 57 54 57 54 51 57 71 71 73 75 71 71 75 73 71 75 96 96 93 91 91 96 87 91 96
3 67 81 83 79 81 79 82 79 81 83 79 82 96 87 96 91 96 87 87 91 67 68 68 71 67 68 71 68 71 67 71 57 60 60 63 57 63 60 60 63 54 55 55 57 54 54 55 57 54 57 55 54 57 45 46 47 45 47 45 47 45 54 57 60 54 60 57 60 54 57 54 57 54 54 57 79 57 54 57 54 51 57 71 71 73 75 71 71 75 73 71 75 96 96 93 91 91 96 87 91 96
4 65 79 81 78 79 77 80 78 79 81 78 80 94 85 94 90 94 85 85 90 65 66 66 69 65 66 69 66 69 65 69 54 58 58 61 54 61 58 58 61 51 52 52 54 51 51 52 54 51 54 52 51 54 42 43 44 42 44 42 44 42 51 54 58 51 58 54 58 51 54 51 54 51 51 54 77 54 51 54 51 48 54 69 69 71 73 69 69 73 71 69 73 94 94 92 90 90 94 85 90 94
5 65 79 81 78 79 77 80 78 79 81 78 80 94 85 94 90 94 85 85 90 65 66 66 69 65 66 69 66 69 65 69 54 58 58 61 54 61 58 58 61 51 52 52 54 51 51 52 54 51 54 52 51 54 42 43 44 42 44 42 44 42 51 54 58 51 58 54 58 51 54 51 54 51 51 54 77 54 51 54 51 48 54 69 69 71 73 69 69 73 71 69 73 94 94 92 90 90 94 85 90 94
6 65 79 81 78 79 77 80 78 79 81 78 80 94 85 94 90 94 85 85 90 65 66 66 69 65 66 69 66 69 65 69 54 58 58 61 54 61 58 58 61 51 52 52 54 51 51 52 54 51 54 52 51 54 42 43 44 42 44 42 44 42 51 54 58 51 58 54 58 51 54 51 54 51 51 54 77 54 51 54 51 48 54 69 69 71 73 69 69 73 71 69 73 94 94 92 90 90 94 85 90 94
7 64 78 80 77 78 76 79 77 78 80 77 79 93 85 93 89 93 85 85 89 64 65 65 68 64 65 68 65 68 64 68 53 56 56 60 53 60 56 56 60 50 51 51 53 50 50 51 53 50 53 51 50 53 40 41 42 40 42 40 42 40 50 53 56 50 56 53 56 50 53 50 53 50 50 53 76 53 50 53 50 47 53 68 68 70 72 68 68 72 70 68 72 93 93 91 89 89 93 85 89 93
8 64 78 80 77 78 76 79 77 78 80 77 79 93 85 93 89 93 85 85 89 64 65 65 68 64 65 68 65 68 64 68 53 56 56 60 53 60 56 56 60 50 51 51 53 50 50 51 53 50 53 51 50 53 40 41 42 40 42 40 42 40 50 53 56 50 56 53 56 50 53 50 53 50 50 53 76 53 50 53 50 47 53 68 68 70 72 68 68 72 70 68 72 93 93 91 89 89 93 85 89 93
9 62 77 79 76 77 75 78 76 77 79 76 78 93 84 93 88 93 84 84 88 62 64 64 66 62 64 66 64 66 62 66 51 55 55 58 51 58 55 55 58 48 49 49 51 48 48 49 51 48 51 49 48 51 38 39 40 38 40 38 40 38 48 51 55 48 55 51 55 48 51 48 51 48 48 51 75 51 48 51 48 45 51 66 66 69 71 66 66 71 69 66 71 93 93 90 88 88 93 84 88 93
10 62 77 79 76 77 75 78 76 77 79 76 78 93 84 93 88 93 84 84 88 62 64 64 66 62 64 66 64 66 62 66 51 55 55 58 51 58 55 55 58 48 49 49 51 48 48 49 51 48 51 49 48 51 38 39 40 38 40 38 40 38 48 51 55 48 55 51 55 48 51 48 51 48 48 51 75 51 48 51 48 45 51 66 66 69 71 66 66 71 69 66 71 93 93 90 88 88 93 84 88 93
11 61 76 78 74 76 73 77 74 76 78 74 77 91 82 91 87 91 82 82 87 61 62 62 65 61 62 65 62 65 61 65 49 53 53 57 49 57 53 53 57 46 47 47 49 46 46 47 49 46 49 47 46 49 35 36 38 35 38 35 38 35 46 49 53 46 53 49 53 46 49 46 49 46 46 49 73 49 46 49 46 43 49 65 65 67 69 65 65 69 67 65 69 91 91 89 87 87 91 82 87 91
12 61 76 78 74 76 73 77 74 76 78 74 77 91 82 91 87 91 82 82 87 61 62 62 65 61 62 65 62 65 61 65 49 53 53 57 49 57 53 53 57 46 47 47 49 46 46 47 49 46 49 47 46 49 35 36 38 35 38 35 38 35 46 49 53 46 53 49 53 46 49 46 49 46 46 49 73 49 46 49 46 43 49 65 65 67 69 65 65 69 67 65 69 91 91 89 87 87 91 82 87 91
13 55 72 74 70 72 69 73 70 72 74 70 73 88 79 88 83 88 79 79 83 55 57 57 60 55 57 60 57 60 55 60 43 47 47 51 43 51 47 47 51 39 40 40 43 39 39 40 43 39 43 40 39 43 25 26 29 25 29 25 29 25 39 43 47 39 47 43 47 39 43 39 43 39 39 43 69 43 39 43 39 35 43 60 60 63 65 60 60 65 63 60 65 88 88 85 83 83 88 79 83 88
14 54 71 73 69 71 68 72 69 71 73 69 72 87 78 87 82 87 78 78 82 54 56 56 59 54 56 59 56 59 54 59 41 45 45 50 41 50 45 45 50 37 38 38 41 37 37 38 41 37 41 38 37 41 22 24 26 22 26 22 26 22 37 41 45 37 45 41 45 37 41 37 41 37 37 41 68 41 37 41 37 33 41 59 59 62 63 59 59 63 62 59 63 87 87 84 82 82 87 78 82 87
15 54 71 73 69 71 68 72 69 71 73 69 72 87 78 87 82 87 78 78 82 54 56 56 59 54 56 59 56 59 54 59 41 45 45 50 41 50 45 45 50 37 38 38 41 37 37 38 41 37 41 38 37 41 22 24 26 22 26 22 26 22 37 41 45 37 45 41 45 37 41 37 41 37 37 41 68 41 37 41 37 33 41 59 59 62 63 59 59 63 62 59 63 87 87 84 82 82 87 78 82 87
16 53 70 72 68 70 68 71 68 70 72 68 71 87 77 87 82 87 77 77 82 53 55 55 58 53 55 58 55 58 53 58 40 44 44 49 40 49 44 44 49 36 37 37 40 36 36 37 40 36 40 37 36 40 20 22 25 20 25 20 25 20 36 40 44 36 44 40 44 36 40 36 40 36 36 40 68 40 36 40 36 32 40 58 58 61 63 58 58 63 61 58 63 87 87 84 82 82 87 77 82 87
17 53 70 72 68 70 68 71 68 70 72 68 71 87 77 87 82 87 77 77 82 53 55 55 58 53 55 58 55 58 53 58 40 44 44 49 40 49 44 44 49 36 37 37 40 36 36 37 40 36 40 37 36 40 20 22 25 20 25 20 25 20 36 40 44 36 44 40 44 36 40 36 40 36 36 40 68 40 36 40 36 32 40 58 58 61 63 58 58 63 61 58 63 87 87 84 82 82 87 77 82 87
18 53 70 72 68 70 67 71 68 70 72 68 71 86 77 86 82 86 77 77 82 53 55 55 57 53 55 57 55 57 53 57 39 43 43 48 39 48 43 43 48 34 36 36 39 34 34 36 39 34 39 36 34 39 18 20 23 18 23 18 23 18 34 39 43 34 43 39 43 34 39 34 39 34 34 39 67 39 34 39 34 30 39 57 57 60 62 57 57 62 60 57 62 86 86 83 82 82 86 77 82 86
19 52 69 71 67 69 66 70 67 69 71 67 70 86 76 86 81 86 76 76 81 52 54 54 57 52 54 57 54 57 52 57 38 42 42 47 38 47 42 42 47 33 35 35 38 33 33 35 38 33 38 35 33 38 15 18 21 15 21 15 21 15 33 38 42 33 42 38 42 33 38 33 38 33 33 38 66 38 33 38 33 29 38 57 57 59 61 57 57 61 59 57 61 86 86 83 81 81 86 76 81 86
20 52 69 71 67 69 66 70 67 69 71 67 70 86 76 86 81 86 76 76 81 52 54 54 57 52 54 57 54 57 52 57 38 42 42 47 38 47 42 42 47 33 35 35 38 33 33 35 38 33 38 35 33 38 15 18 21 15 21 15 21 15 33 38 42 33 42 38 42 33 38 33 38 33 33 38 66 38 33 38 33 29 38 57 57 59 61 57 57 61 59 57 61 86 86 83 81 81 86 76 81 86
21 58 74 76 72 74 71 75 72 74 76 72 75 90 80 90 85 90 80 80 85 58 60 60 62 58 60 62 60 62 58 62 46 50 50 54 46 54 50 50 54 42 43 43 46 42 42 43 46 42 46 43 42 46 30 31 33 30 33 30 33 30 42 46 50 42 50 46 50 42 46 42 46 42 42 46 71 46 42 46 42 39 46 62 62 65 67 62 62 67 65 62 67 90 90 87 85 85 90 80 85 90
22 58 74 76 72 74 71 75 72 74 76 72 75 90 80 90 85 90 80 80 85 58 60 60 62 58 60 62 60 62 58 62 46 50 50 54 46 54 50 50 54 42 43 43 46 42 42 43 46 42 46 43 42 46 30 31 33 30 33 30 33 30 42 46 50 42 50 46 50 42 46 42 46 42 42 46 71 46 42 46 42 39 46 62 62 65 67 62 62 67 65 62 67 90 90 87 85 85 90 80 85 90
23 57 73 75 71 73 70 74 71 73 75 71 74 89 80 89 84 89 80 80 84 57 59 59 61 57 59 61 59 61 57 61 44 48 48 53 44 53 48 48 53 41 42 42 44 41 41 42 44 41 44 42 41 44 28 29 31 28 31 28 31 28 41 44 48 41 48 44 48 41 44 41 44 41 41 44 70 44 41 44 41 37 44 61 61 64 66 61 61 66 64 61 66 89 89 86 84 84 89 80 84 89
24 57 73 75 71 73 70 74 71 73 75 71 74 89 80 89 84 89 80 80 84 57 59 59 61 57 59 61 59 61 57 61 44 48 48 53 44 53 48 48 53 41 42 42 44 41 41 42 44 41 44 42 41 44 28 29 31 28 31 28 31 28 41 44 48 41 48 44 48 41 44 41 44 41 41 44 70 44 41 44 41 37 44 61 61 64 66 61 61 66 64 61 66 89 89 86 84 84 89 80 84 89
25 55 72 74 70 72 69 73 70 72 74 70 73 88 79 88 83 88 79 79 83 55 57 57 60 55 57 60 57 60 55 60 43 47 47 51 43 51 47 47 51 39 40 40 43 39 39 40 43 39 43 40 39 43 25 26 29 25 29 25 29 25 39 43 47 39 47 43 47 39 43 39 43 39 39 43 69 43 39 43 39 35 43 60 60 63 65 60 60 65 63 60 65 88 88 85 83 83 88 79 83 88
26 55 72 74 70 72 69 73 70 72 74 70 73 88 79 88 83 88 79 79 83 55 57 57 60 55 57 60 57 60 55 60 43 47 47 51 43 51 47 47 51 39 40 40 43 39 39 40 43 39 43 40 39 43 25 26 29 25 29 25 29 25 39 43 47 39 47 43 47 39 43 39 43 39 39 43 69 43 39 43 39 35 43 60 60 63 65 60 60 65 63 60 65 88 88 85 83 83 88 79 83 88
27 55 72 74 70 72 69 73 70 72 74 70 73 88 79 88 83 88 79 79 83 55 57 57 60 55 57 60 57 60 55 60 43 47 47 51 43 51 47 47 51 39 40 40 43 39 39 40 43 39 43 40 39 43 25 26 29 25 29 25 29 25 39 43 47 39 47 43 47 39 43 39 43 39 39 43 69 43 39 43 39 35 43 60 60 63 65 60 60 65 63 60 65 88 88 85 83 83 88 79 83 88
28 55 71 73 69 71 68 72 69 71 73 69 72 88 78 88 83 88 78 78 83 55 56 56 59 55 56 59 56 59 55 59 41 46 46 50 41 50 46 46 50 37 39 39 41 37 37 39 41 37 41 39 37 41 23 25 27 23 27 23 27 23 37 41 46 37 46 41 46 37 41 37 41 37 37 41 68 41 37 41 37 33 41 59 59 62 64 59 59 64 62 59 64 88 88 85 83 83 88 78 83 88
29 55 71 73 69 71 68 72 69 71 73 69 72 88 78 88 83 88 78 78 83 55 56 56 59 55 56 59 56 59 55 59 41 46 46 50 41 50 46 46 50 37 39 39 41 37 37 39 41 37 41 39 37 41 23 25 27 23 27 23 27 23 37 41 46 37 46 41 46 37 41 37 41 37 37 41 68 41 37 41 37 33 41 59 59 62 64 59 59 64 62 59 64 88 88 85 83 83 88 78 83 88
30 53 70 72 68 70 68 71 68 70 72 68 71 87 77 87 82 87 77 77 82 53 55 55 58 53 55 58 55 58 53 58 40 44 44 49 40 49 44 44 49 36 37 37 40 36 36 37 40 36 40 37 36 40 20 22 25 20 25 20 25 20 36 40 44 36 44 40 44 36 40 36 40 36 36 40 68 40 36 40 36 32 40 58 58 61 63 58 58 63 61 58 63 87 87 84 82 82 87 77 82 87
31 53 70 72 68 70 68 71 68 70 72 68 71 87 77 87 82 87 77 77 82 53 55 55 58 53 55 58 55 58 53 58 40 44 44 49 40 49 44 44 49 36 37 37 40 36 36 37 40 36 40 37 36 40 20 22 25 20 25 20 25 20 36 40 44 36 44 40 44 36 40 36 40 36 36 40 68 40 36 40 36 32 40 58 58 61 63 58 58 63 61 58 63 87 87 84 82 82 87 77 82 87
32 50 68 70 66 68 65 69 66 68 70 66 69 85 75 85 80 85 75 75 80 50 52 52 55 50 52 55 52 55 50 55 36 41 41 46 36 46 41 41 46 31 33 33 36 31 31 33 36 31 36 33 31 36 11 14 18 11 18 11 18 11 31 36 41 31 41 36 41 31 36 31 36 31 31 36 65 36 31 36 31 26 36 55 55 58 60 55 55 60 58 55 60 85 85 82 80 80 85 75 80 85
33 50 68 70 66 68 65 69 66 68 70 66 69 85 75 85 80 85 75 75 80 50 52 52 55 50 52 55 52 55 50 55 36 41 41 46 36 46 41 41 46 31 33 33 36 31 31 33 36 31 36 33 31 36 11 14 18 11 18 11 18 11 31 36 41 31 41 36 41 31 36 31 36 31 31 36 65 36 31 36 31 26 36 55 55 58 60 55 55 60 58 55 60 85 85 82 80 80 85 75 80 85
34 50 68 70 66 68 65 69 66 68 70 66 69 85 75 85 80 85 75 75 80 50 52 52 55 50 52 55 52 55 50 55 35 40 40 45 35 45 40 40 45 31 32 32 35 31 31 32 35 31 35 32 31 35 9 12 17 9 17 9 17 9 31 35 40 31 40 35 40 31 35 31 35 31 31 35 65 35 31 35 31 26 35 55 55 58 60 55 55 60 58 55 60 85 85 82 80 80 85 75 80 85
35 50 68 70 66 68 65 69 66 68 70 66 69 85 75 85 80 85 75 75 80 50 52 52 55 50 52 55 52 55 50 55 35 40 40 45 35 45 40 40 45 31 32 32 35 31 31 32 35 31 35 32 31 35 9 12 17 9 17 9 17 9 31 35 40 31 40 35 40 31 35 31 35 31 31 35 65 35 31 35 31 26 35 55 55 58 60 55 55 60 58 55 60 85 85 82 80 80 85 75 80 85
36 50 68 70 66 68 65 69 66 68 70 66 69 85 75 85 80 85 75 75 80 50 52 52 55 50 52 55 52 55 50 55 35 40 40 45 35 45 40 40 45 30 32 32 35 30 30 32 35 30 35 32 30 35 7 11 15 7 15 7 15 7 30 35 40 30 40 35 40 30 35 30 35 30 30 35 65 35 30 35 30 25 35 55 55 58 60 55 55 60 58 55 60 85 85 82 80 80 85 75 80 85
37 50 68 70 66 68 65 69 66 68 70 66 69 85 75 85 80 85 75 75 80 50 52 52 55 50 52 55 52 55 50 55 35 40 40 45 35 45 40 40 45 30 32 32 35 30 30 32 35 30 35 32 30 35 7 11 15 7 15 7 15 7 30 35 40 30 40 35 40 30 35 30 35 30 30 35 65 35 30 35 30 25 35 55 55 58 60 55 55 60 58 55 60 85 85 82 80 80 85 75 80 85
38 50 68 70 66 68 65 69 66 68 70 66 69 85 75 85 80 85 75 75 80 50 52 52 55 50 52 55 52 55 50 55 35 40 40 45 35 45 40 40 45 30 32 32 35 30 30 32 35 30 35 32 30 35 5 10 15 5 15 5 15 5 30 35 40 30 40 35 40 30 35 30 35 30 30 35 65 35 30 35 30 25 35 55 55 58 60 55 55 60 58 55 60 85 85 82 80 80 85 75 80 85
39 50 68 70 66 68 65 69 66 68 70 66 69 85 75 85 80 85 75 75 80 50 52 52 55 50 52 55 52 55 50 55 35 40 40 45 35 45 40 40 45 30 32 32 35 30 30 32 35 30 35 32 30 35 5 10 15 5 15 5 15 5 30 35 40 30 40 35 40 30 35 30 35 30 30 35 65 35 30 35 30 25 35 55 55 58 60 55 55 60 58 55 60 85 85 82 80 80 85 75 80 85
40 50 68 70 66 68 65 69 66 68 70 66 69 85 75 85 80 85 75 75 80 50 52 52 55 50 52 55 52 55 50 55 35 40 40 45 35 45 40 40 45 30 32 32 35 30 30 32 35 30 35 32 30 35 5 10 15 5 15 5 15 5 30 35 40 30 40 35 40 30 35 30 35 30 30 35 65 35 30 35 30 25 35 55 55 58 60 55 55 60 58 55 60 85 85 82 80 80 85 75 80 85
41 61 76 78 74 76 73 77 74 76 78 74 77 91 82 91 87 91 82 82 87 61 62 62 65 61 62 65 62 65 61 65 49 53 53 57 49 57 53 53 57 46 47 47 49 46 46 47 49 46 49 47 46 49 35 36 38 35 38 35 38 35 46 49 53 46 53 49 53 46 49 46 49 46 46 49 73 49 46 49 46 43 49 65 65 67 69 65 65 69 67 65 69 91 91 89 87 87 91 82 87 91
42 61 76 78 74 76 73 77 74 76 78 74 77 91 82 91 87 91 82 82 87 61 62 62 65 61 62 65 62 65 61 65 49 53 53 57 49 57 53 53 57 46 47 47 49 46 46 47 49 46 49 47 46 49 35 36 38 35 38 35 38 35 46 49 53 46 53 49 53 46 49 46 49 46 46 49 73 49 46 49 46 43 49 65 65 67 69 65 65 69 67 65 69 91 91 89 87 87 91 82 87 91
43 59 75 77 73 75 72 76 73 75 77 73 76 91 81 91 86 91 81 81 86 59 61 61 64 59 61 64 61 64 59 64 48 51 51 55 48 55 51 51 55 44 45 45 48 44 44 45 48 44 48 45 44 48 33 34 36 33 36 33 36 33 44 48 51 44 51 48 51 44 48 44 48 44 44 48 72 48 44 48 44 41 48 64 64 66 68 64 64 68 66 64 68 91 91 88 86 86 91 81 86 91
44 59 75 77 73 75 72 76 73 75 77 73 76 91 81 91 86 91 81 81 86 59 61 61 64 59 61 64 61 64 59 64 48 51 51 55 48 55 51 51 55 44 45 45 48 44 44 45 48 44 48 45 44 48 33 34 36 33 36 33 36 33 44 48 51 44 51 48 51 44 48 44 48 44 44 48 72 48 44 48 44 41 48 64 64 66 68 64 64 68 66 64 68 91 91 88 86 86 91 81 86 91
45 59 75 76 73 75 72 76 73 75 76 73 76 90 81 90 86 90 81 81 86 59 61 61 63 59 61 63 61 63 59 63 47 51 51 55 47 55 51 51 55 43 45 45 47 43 43 45 47 43 47 45 43 47 32 33 35 32 35 32 35 32 43 47 51 43 51 47 51 43 47 43 47 43 43 47 72 47 43 47 43 40 47 63 63 66 68 63 63 68 66 63 68 90 90 88 86 86 90 81 86 90
46 58 74 76 72 74 71 75 72 74 76 72 75 90 80 90 85 90 80 80 85 58 60 60 62 58 60 62 60 62 58 62 46 50 50 54 46 54 50 50 54 42 43 43 46 42 42 43 46 42 46 43 42 46 30 31 33 30 33 30 33 30 42 46 50 42 50 46 50 42 46 42 46 42 42 46 71 46 42 46 42 39 46 62 62 65 67 62 62 67 65 62 67 90 90 87 85 85 90 80 85 90
47 58 74 76 72 74 71 75 72 74 76 72 75 90 80 90 85 90 80 80 85 58 60 60 62 58 60 62 60 62 58 62 46 50 50 54 46 54 50 50 54 42 43 43 46 42 42 43 46 42 46 43 42 46 30 31 33 30 33 30 33 30 42 46 50 42 50 46 50 42 46 42 46 42 42 46 71 46 42 46 42 39 46 62 62 65 67 62 62 67 65 62 67 90 90 87 85 85 90 80 85 90
48 58 74 76 72 74 71 75 72 74 76 72 75 90 80 90 85 90 80 80 85 58 60 60 62 58 60 62 60 62 58 62 46 50 50 54 46 54 50 50 54 42 43 43 46 42 42 43 46 42 46 43 42 46 30 31 33 30 33 30 33 30 42 46 50 42 50 46 50 42 46 42 46 42 42 46 71 46 42 46 42 39 46 62 62 65 67 62 62 67 65 62 67 90 90 87 85 85 90 80 85 90
49 57 73 75 71 73 70 74 71 73 75 71 74 89 80 89 84 89 80 80 84 57 59 59 61 57 59 61 59 61 57 61 44 48 48 53 44 53 48 48 53 41 42 42 44 41 41 42 44 41 44 42 41 44 28 29 31 28 31 28 31 28 41 44 48 41 48 44 48 41 44 41 44 41 41 44 70 44 41 44 41 37 44 61 61 64 66 61 61 66 64 61 66 89 89 86 84 84 89 80 84 89
50 57 73 75 71 73 70 74 71 73 75 71 74 89 80 89 84 89 80 80 84 57 59 59 61 57 59 61 59 61 57 61 44 48 48 53 44 53 48 48 53 41 42 42 44 41 41 42 44 41 44 42 41 44 28 29 31 28 31 28 31 28 41 44 48 41 48 44 48 41 44 41 44 41 41 44 70 44 41 44 41 37 44 61 61 64 66 61 61 66 64 61 66 89 89 86 84 84 89 80 84 89
51 56 72 74 70 72 70 73 70 72 74 70 73 88 79 88 84 88 79 79 84 56 58 58 60 56 58 60 58 60 56 60 43 47 47 51 43 51 47 47 51 39 41 41 43 39 39 41 43 39 43 41 39 43 26 27 30 26 30 26 30 26 39 43 47 39 47 43 47 39 43 39 43 39 39 43 70 43 39 43 39 36 43 60 60 63 65 60 60 65 63 60 65 88 88 86 84 84 88 79 84 88
52 55 72 74 70 72 69 73 70 72 74 70 73 88 79 88 83 88 79 79 83 55 57 57 60 55 57 60 57 60 55 60 43 47 47 51 43 51 47 47 51 39 40 40 43 39 39 40 43 39 43 40 39 43 25 26 29 25 29 25 29 25 39 43 47 39 47 43 47 39 43 39 43 39 39 43 69 43 39 43 39 35 43 60 60 63 65 60 60 65 63 60 65 88 88 85 83 83 88 79 83 88
53 55 72 74 70 72 69 73 70 72 74 70 73 88 79 88 83 88 79 79 83 55 57 57 60 55 57 60 57 60 55 60 43 47 47 51 43 51 47 47 51 39 40 40 43 39 39 40 43 39 43 40 39 43 25 26 29 25 29 25 29 25 39 43 47 39 47 43 47 39 43 39 43 39 39 43 69 43 39 43 39 35 43 60 60 63 65 60 60 65 63 60 65 88 88 85 83 83 88 79 83 88
54 66 80 82 79 80 78 81 79 80 82 79 81 95 86 95 91 95 86 86 91 66 68 68 70 66 68 70 68 70 66 70 56 59 59 62 56 62 59 59 62 53 54 54 56 53 53 54 56 53 56 54 53 56 44 45 46 44 46 44 46 44 53 56 59 53 59 56 59 53 56 53 56 53 53 56 78 56 53 56 53 50 56 70 70 72 74 70 70 74 72 70 74 95 95 93 91 91 95 86 91 95
55 65 79 81 78 79 77 80 78 79 81 78 80 94 85 94 90 94 85 85 90 65 66 66 69 65 66 69 66 69 65 69 54 58 58 61 54 61 58 58 61 51 52 52 54 51 51 52 54 51 54 52 51 54 42 43 44 42 44 42 44 42 51 54 58 51 58 54 58 51 54 51 54 51 51 54 77 54 51 54 51 48 54 69 69 71 73 69 69 73 71 69 73 94 94 92 90 90 94 85 90 94
56 65 79 81 78 79 77 80 78 79 81 78 80 94 85 94 90 94 85 85 90 65 66 66 69 65 66 69 66 69 65 69 54 58 58 61 54 61 58 58 61 51 52 52 54 51 51 52 54 51 54 52 51 54 42 43 44 42 44 42 44 42 51 54 58 51 58 54 58 51 54 51 54 51 51 54 77 54 51 54 51 48 54 69 69 71 73 69 69 73 71 69 73 94 94 92 90 90 94 85 90 94
57 64 78 80 77 78 76 79 77 78 80 77 79 93 85 93 89 93 85 85 89 64 65 65 68 64 65 68 65 68 64 68 53 56 56 60 53 60 56 56 60 50 51 51 53 50 50 51 53 50 53 51 50 53 40 41 42 40 42 40 42 40 50 53 56 50 56 53 56 50 53 50 53 50 50 53 76 53 50 53 50 47 53 68 68 70 72 68 68 72 70 68 72 93 93 91 89 89 93 85 89 93
58 64 78 80 77 78 76 79 77 78 80 77 79 93 85 93 89 93 85 85 89 64 65 65 68 64 65 68 65 68 64 68 53 56 56 60 53 60 56 56 60 50 51 51 53 50 50 51 53 50 53 51 50 53 40 41 42 40 42 40 42 40 50 53 56 50 56 53 56 50 53 50 53 50 50 53 76 53 50 53 50 47 53 68 68 70 72 68 68 72 70 68 72 93 93 91 89 89 93 85 89 93
59 62 77 79 76 77 75 78 76 77 79 76 78 93 84 93 88 93 84 84 88 62 64 64 66 62 64 66 64 66 62 66 51 55 55 58 51 58 55 55 58 48 49 49 51 48 48 49 51 48 51 49 48 51 38 39 40 38 40 38 40 38 48 51 55 48 55 51 55 48 51 48 51 48 48 51 75 51 48 51 48 45 51 66 66 69 71 66 66 71 69 66 71 93 93 90 88 88 93 84 88 93
60 62 77 79 76 77 75 78 76 77 79 76 78 93 84 93 88 93 84 84 88 62 64 64 66 62 64 66 64 66 62 66 51 55 55 58 51 58 55 55 58 48 49 49 51 48 48 49 51 48 51 49 48 51 38 39 40 38 40 38 40 38 48 51 55 48 55 51 55 48 51 48 51 48 48 51 75 51 48 51 48 45 51 66 66 69 71 66 66 71 69 66 71 93 93 90 88 88 93 84 88 93
61 61 76 78 74 76 73 77 74 76 78 74 77 91 82 91 87 91 82 82 87 61 62 62 65 61 62 65 62 65 61 65 49 53 53 57 49 57 53 53 57 46 47 47 49 46 46 47 49 46 49 47 46 49 35 36 38 35 38 35 38 35 46 49 53 46 53 49 53 46 49 46 49 46 46 49 73 49 46 49 46 43 49 65 65 67 69 65 65 69 67 65 69 91 91 89 87 87 91 82 87 91
62 70 84 86 82 84 82 85 82 84 86 82 85 98 90 98 94 98 90 90 94 70 72 72 74 70 72 74 72 74 70 74 61 64 64 67 61 67 64 64 67 58 59 59 61 58 58 59 61 58 61 59 58 61 50 50 52 50 52 50 52 50 58 61 64 58 64 61 64 58 61 58 61 58 58 61 82 61 58 61 58 55 61 74 74 76 78 74 74 78 76 74 78 98 98 96 94 94 98 90 94 98
63 70 84 86 82 84 82 85 82 84 86 82 85 98 90 98 94 98 90 90 94 70 72 72 74 70 72 74 72 74 70 74 61 64 64 67 61 67 64 64 67 58 59 59 61 58 58 59 61 58 61 59 58 61 50 50 52 50 52 50 52 50 58 61 64 58 64 61 64 58 61 58 61 58 58 61 82 61 58 61 58 55 61 74 74 76 78 74 74 78 76 74 78 98 98 96 94 94 98 90 94 98
64 70 84 86 82 84 82 85 82 84 86 82 85 98 90 98 94 98 90 90 94 70 72 72 74 70 72 74 72 74 70 74 61 64 64 67 61 67 64 64 67 58 59 59 61 58 58 59 61 58 61 59 58 61 50 50 52 50 52 50 52 50 58 61 64 58 64 61 64 58 61 58 61 58 58 61 82 61 58 61 58 55 61 74 74 76 78 74 74 78 76 74 78 98 98 96 94 94 98 90 94 98
65 69 83 84 81 83 80 84 81 83 84 81 84 97 89 97 93 97 89 89 93 69 70 70 73 69 70 73 70 73 69 73 59 62 62 65 59 65 62 62 65 56 57 57 59 56 56 57 59 56 59 57 56 59 48 49 50 48 50 48 50 48 56 59 62 56 62 59 62 56 59 56 59 56 56 59 80 59 56 59 56 54 59 73 73 75 76 73 73 76 75 73 76 97 97 95 93 93 97 89 93 97
66 69 83 84 81 83 80 84 81 83 84 81 84 97 89 97 93 97 89 89 93 69 70 70 73 69 70 73 70 73 69 73 59 62 62 65 59 65 62 62 65 56 57 57 59 56 56 57 59 56 59 57 56 59 48 49 50 48 50 48 50 48 56 59 62 56 62 59 62 56 59 56 59 56 56 59 80 59 56 59 56 54 59 73 73 75 76 73 73 76 75 73 76 97 97 95 93 93 97 89 93 97
67 68 82 84 81 82 80 83 81 82 84 81 83 97 88 97 92 97 88 88 92 68 70 70 72 68 70 72 70 72 68 72 58 61 61 65 58 65 61 61 65 55 56 56 58 55 55 56 58 55 58 56 55 58 47 48 49 47 49 47 49 47 55 58 61 55 61 58 61 55 58 55 58 55 55 58 80 58 55 58 55 53 58 72 72 74 76 72 72 76 74 72 76 97 97 94 92 92 97 88 92 97
68 68 82 84 81 82 80 83 81 82 84 81 83 97 88 97 92 97 88 88 92 68 70 70 72 68 70 72 70 72 68 72 58 61 61 65 58 65 61 61 65 55 56 56 58 55 55 56 58 55 58 56 55 58 47 48 49 47 49 47 49 47 55 58 61 55 61 58 61 55 58 55 58 55 55 58 80 58 55 58 55 53 58 72 72 74 76 72 72 76 74 72 76 97 97 94 92 92 97 88 92 97
69 67 81 83 79 81 79 82 79 81 83 79 82 96 87 96 91 96 87 87 91 67 68 68 71 67 68 71 68 71 67 71 57 60 60 63 57 63 60 60 63 54 55 55 57 54 54 55 57 54 57 55 54 57 45 46 47 45 47 45 47 45 54 57 60 54 60 57 60 54 57 54 57 54 54 57 79 57 54 57 54 51 57 71 71 73 75 71 71 75 73 71 75 96 96 93 91 91 96 87 91 96
70 67 81 83 79 81 79 82 79 81 83 79 82 96 87 96 91 96 87 87 91 67 68 68 71 67 68 71 68 71 67 71 57 60 60 63 57 63 60 60 63 54 55 55 57 54 54 55 57 54 57 55 54 57 45 46 47 45 47 45 47 45 54 57 60 54 60 57 60 54 57 54 57 54 54 57 79 57 54 57 54 51 57 71 71 73 75 71 71 75 73 71 75 96 96 93 91 91 96 87 91 96
71 107 116 118 115 116 115 117 115 116 118 115 117 127 121 127 124 127 121 121 124 107 108 108 109 107 108 109 108 109 107 109 101 103 103 105 101 105 103 103 105 99 100 100 101 99 99 100 101 99 101 100 99 101 95 95 96 95 96 95 96 95 99 101 103 99 103 101 103 99 101 99 101 99 99 101 115 101 99 101 99 98 101 109 109 111 112 109 109 112 111 109 112 127 127 125 124 124 127 121 124 127
72 107 116 118 115 116 115 117 115 116 118 115 117 127 121 127 124 127 121 121 124 107 108 108 109 107 108 109 108 109 107 109 101 103 103 105 101 105 103 103 105 99 100 100 101 99 99 100 101 99 101 100 99 101 95 95 96 95 96 95 96 95 99 101 103 99 103 101 103 99 101 99 101 99 99 101 115 101 99 101 99 98 101 109 109 111 112 109 109 112 111 109 112 127 127 125 124 124 127 121 124 127
73 72 86 87 84 86 83 87 84 86 87 84 87 100 91 100 95 100 91 91 95 72 74 74 76 72 74 76 74 76 72 76 63 66 66 69 63 69 66 66 69 60 61 61 63 60 60 61 63 60 63 61 60 63 53 53 55 53 55 53 55 53 60 63 66 60 66 63 66 60 63 60 63 60 60 63 83 63 60 63 60 58 63 76 76 78 80 76 76 80 78 76 80 100 100 97 95 95 100 91 95 100
74 104 114 115 113 114 112 115 113 114 115 113 115 125 118 125 121 125 118 118 121 104 105 105 107 104 105 107 105 107 104 107 98 100 100 102 98 102 100 100 102 96 97 97 98 96 96 97 98 96 98 97 96 98 92 92 93 92 93 92 93 92 96 98 100 96 100 98 100 96 98 96 98 96 96 98 112 98 96 98 96 95 98 107 107 108 109 107 107 109 108 107 109 125 125 123 121 121 125 118 121 125
75 72 86 87 84 86 83 87 84 86 87 84 87 100 91 100 95 100 91 91 95 72 74 74 76 72 74 76 74 76 72 76 63 66 66 69 63 69 66 66 69 60 61 61 63 60 60 61 63 60 63 61 60 63 53 53 55 53 55 53 55 53 60 63 66 60 66 63 66 60 63 60 63 60 60 63 83 63 60 63 60 58 63 76 76 78 80 76 76 80 78 76 80 100 100 97 95 95 100 91 95 100
76 67 81 83 79 81 79 82 79 81 83 79 82 96 87 96 91 96 87 87 91 67 68 68 71 67 68 71 68 71 67 71 57 60 60 63 57 63 60 60 63 54 55 55 57 54 54 55 57 54 57 55 54 57 45 46 47 45 47 45 47 45 54 57 60 54 60 57 60 54 57 54 57 54 54 57 79 57 54 57 54 51 57 71 71 73 75 71 71 75 73 71 75 96 96 93 91 91 96 87 91 96
77 102 112 114 111 112 111 113 111 112 114 111 113 123 117 123 120 123 117 117 120 102 103 103 105 102 103 105 103 105 102 105 96 98 98 100 96 100 98 98 100 94 95 95 96 94 94 95 96 94 96 95 94 96 90 90 91 90 91 90 91 90 94 96 98 94 98 96 98 94 96 94 96 94 94 96 111 96 94 96 94 93 96 105 105 107 108 105 105 108 107 105 108 123 123 121 120 120 123 117 120 123
78 101 111 112 110 111 109 111 110 111 112 110 111 122 115 122 118 122 115 115 118 101 102 102 103 101 102 103 102 103 101 103 94 96 96 98 94 98 96 96 98 92 93 93 94 92 92 93 94 92 94 93 92 94 88 88 89 88 89 88 89 88 92 94 96 92 96 94 96 92 94 92 94 92 92 94 109 94 92 94 92 91 94 103 103 105 106 103 103 106 105 103 106 122 122 120 118 118 122 115 118 122
79 101 111 112 110 111 109 111 110 111 112 110 111 122 115 122 118 122 115 115 118 101 102 102 103 101 102 103 102 103 101 103 94 96 96 98 94 98 96 96 98 92 93 93 94 92 92 93 94 92 94 93 92 94 88 88 89 88 89 88 89 88 92 94 96 92 96 94 96 92 94 92 94 92 92 94 109 94 92 94 92 91 94 103 103 105 106 103 103 106 105 103 106 122 122 120 118 118 122 115 118 122
80 100 110 111 109 110 108 111 109 110 111 109 111 121 114 121 118 121 114 114 118 100 101 101 102 100 101 102 101 102 100 102 93 95 95 97 93 97 95 95 97 92 92 92 93 92 92 92 93 92 93 92 92 93 87 87 88 87 88 87 88 87 92 93 95 92 95 93 95 92 93 92 93 92 92 93 108 93 92 93 92 90 93 102 102 104 105 102 102 105 104 102 105 121 121 119 118 118 121 114 118 121
81 98 108 110 107 108 107 109 107 108 110 107 109 120 113 120 116 120 113 113 116 98 99 99 101 98 99 101 99 101 98 101 91 93 93 96 91 96 93 93 96 90 90 90 91 90 90 90 91 90 91 90 90 91 85 85 86 85 86 85 86 85 90 91 93 90 93 91 93 90 91 90 91 90 90 91 107 91 90 91 90 88 91 101 101 102 104 101 101 104 102 101 104 120 120 118 116 116 120 113 116 120
82 98 108 110 107 108 107 109 107 108 110 107 109 120 113 120 116 120 113 113 116 98 99 99 101 98 99 101 99 101 98 101 91 93 93 96 91 96 93 93 96 90 90 90 91 90 90 90 91 90 91 90 90 91 85 85 86 85 86 85 86 85 90 91 93 90 93 91 93 90 91 90 91 90 90 91 107 91 90 91 90 88 91 101 101 102 104 101 101 104 102 101 104 120 120 118 116 116 120 113 116 120
83 90 101 102 99 101 99 101 99 101 102 99 101 113 106 113 109 113 106 106 109 90 91 91 93 90 91 93 91 93 90 93 82 85 85 87 82 87 85 85 87 80 81 81 82 80 80 81 82 80 82 81 80 82 75 75 76 75 76 75 76 75 80 82 85 80 85 82 85 80 82 80 82 80 80 82 99 82 80 82 80 79 82 93 93 94 96 93 93 96 94 93 96 113 113 111 109 109 113 106 109 113
84 87 99 100 97 99 97 99 97 99 100 97 99 111 103 111 107 111 103 103 107 87 88 88 90 87 88 90 88 90 87 90 80 82 82 84 80 84 82 82 84 78 78 78 80 78 78 78 80 78 80 78 78 80 72 72 73 72 73 72 73 72 78 80 82 78 82 80 82 78 80 78 80 78 78 80 97 80 78 80 78 76 80 90 90 92 93 90 90 93 92 90 93 111 111 109 107 107 111 103 107 111
85 86 97 98 96 97 95 98 96 97 98 96 98 110 102 110 106 110 102 102 106 86 87 87 89 86 87 89 87 89 86 89 78 80 80 83 78 83 80 80 83 76 76 76 78 76 76 76 78 76 78 76 76 78 70 70 71 70 71 70 71 70 76 78 80 76 80 78 80 76 78 76 78 76 76 78 95 78 76 78 76 74 78 89 89 90 92 89 89 92 90 89 92 110 110 107 106 106 110 102 106 110
86 84 96 97 94 96 94 96 94 96 97 94 96 108 101 108 104 108 101 101 104 84 85 85 87 84 85 87 85 87 84 87 76 78 78 81 76 81 78 78 81 74 75 75 76 74 74 75 76 74 76 75 74 76 68 68 69 68 69 68 69 68 74 76 78 74 78 76 78 74 76 74 76 74 74 76 94 76 74 76 74 72 76 87 87 89 90 87 87 90 89 87 90 108 108 106 104 104 108 101 104 108
87 82 94 96 93 94 92 95 93 94 96 93 95 107 99 107 103 107 99 99 103 82 84 84 85 82 84 85 84 85 82 85 74 77 77 79 74 79 77 77 79 72 73 73 74 72 72 73 74 72 74 73 72 74 66 66 67 66 67 66 67 66 72 74 77 72 77 74 77 72 74 72 74 72 72 74 92 74 72 74 72 70 74 85 85 87 89 85 85 89 87 85 89 107 107 105 103 103 107 99 103 107
88 82 94 95 92 94 91 94 92 94 95 92 94 107 99 107 103 107 99 99 103 82 83 83 85 82 83 85 83 85 82 85 73 76 76 79 73 79 76 76 79 71 72 72 73 71 71 72 73 71 73 72 71 73 65 65 66 65 66 65 66 65 71 73 76 71 76 73 76 71 73 71 73 71 71 73 91 73 71 73 71 69 73 85 85 87 88 85 85 88 87 85 88 107 107 104 103 103 107 99 103 107
89 82 94 95 92 94 91 94 92 94 95 92 94 107 99 107 103 107 99 99 103 82 83 83 85 82 83 85 83 85 82 85 73 76 76 79 73 79 76 76 79 71 72 72 73 71 71 72 73 71 73 72 71 73 65 65 66 65 66 65 66 65 71 73 76 71 76 73 76 71 73 71 73 71 71 73 91 73 71 73 71 69 73 85 85 87 88 85 85 88 87 85 88 107 107 104 103 103 107 99 103 107
90 80 92 94 91 92 90 93 91 92 94 91 93 105 97 105 101 105 97 97 101 80 81 81 83 80 81 83 81 83 80 83 72 74 74 77 72 77 74 74 77 69 70 70 72 69 69 70 72 69 72 70 69 72 63 63 64 63 64 63 64 63 69 72 74 69 74 72 74 69 72 69 72 69 69 72 90 72 69 72 69 67 72 83 83 85 87 83 83 87 85 83 87 105 105 103 101 101 105 97 101 105
91 78 90 92 89 90 88 91 89 90 92 89 91 104 96 104 100 104 96 96 100 78 79 79 81 78 79 81 79 81 78 81 69 72 72 75 69 75 72 72 75 67 68 68 69 67 67 68 69 67 69 68 67 69 60 60 61 60 61 60 61 60 67 69 72 67 72 69 72 67 69 67 69 67 67 69 88 69 67 69 67 65 69 81 81 83 84 81 81 84 83 81 84 104 104 101 100 100 104 96 100 104
92 78 90 92 89 90 88 91 89 90 92 89 91 104 96 104 100 104 96 96 100 78 79 79 81 78 79 81 79 81 78 81 69 72 72 75 69 75 72 72 75 67 68 68 69 67 67 68 69 67 69 68 67 69 60 60 61 60 61 60 61 60 67 69 72 67 72 69 72 67 69 67 69 67 67 69 88 69 67 69 67 65 69 81 81 83 84 81 81 84 83 81 84 104 104 101 100 100 104 96 100 104
93 83 95 96 94 95 93 96 94 95 96 94 96 108 100 108 104 108 100 100 104 83 84 84 86 83 84 86 84 86 83 86 75 78 78 80 75 80 78 78 80 73 74 74 75 73 73 74 75 73 75 74 73 75 67 67 68 67 68 67 68 67 73 75 78 73 78 75 78 73 75 73 75 73 73 75 93 75 73 75 73 71 75 86 86 88 89 86 86 89 88 86 89 108 108 105 104 104 108 100 104 108
94 82 94 95 92 94 91 94 92 94 95 92 94 107 99 107 103 107 99 99 103 82 83 83 85 82 83 85 83 85 82 85 73 76 76 79 73 79 76 76 79 71 72 72 73 71 71 72 73 71 73 72 71 73 65 65 66 65 66 65 66 65 71 73 76 71 76 73 76 71 73 71 73 71 71 73 91 73 71 73 71 69 73 85 85 87 88 85 85 88 87 85 88 107 107 104 103 103 107 99 103 107
95 82 94 95 92 94 91 94 92 94 95 92 94 107 99 107 103 107 99 99 103 82 83 83 85 82 83 85 83 85 82 85 73 76 76 79 73 79 76 76 79 71 72 72 73 71 71 72 73 71 73 72 71 73 65 65 66 65 66 65 66 65 71 73 76 71 76 73 76 71 73 71 73 71 71 73 91 73 71 73 71 69 73 85 85 87 88 85 85 88 87 85 88 107 107 104 103 103 107 99 103 107
96 79 92 93 90 92 89 92 90 92 93 90 92 105 97 105 101 105 97 97 101 79 80 80 82 79 80 82 80 82 79 82 71 73 73 76 71 76 73 73 76 68 69 69 71 68 68 69 71 68 71 69 68 71 62 62 63 62 63 62 63 62 68 71 73 68 73 71 73 68 71 68 71 68 68 71 89 71 68 71 68 66 71 82 82 84 86 82 82 86 84 82 86 105 105 102 101 101 105 97 101 105
97 78 90 92 89 90 88 91 89 90 92 89 91 104 96 104 100 104 96 96 100 78 79 79 81 78 79 81 79 81 78 81 69 72 72 75 69 75 72 72 75 67 68 68 69 67 67 68 69 67 69 68 67 69 60 60 61 60 61 60 61 60 67 69 72 67 72 69 72 67 69 67 69 67 67 69 88 69 67 69 67 65 69 81 81 83 84 81 81 84 83 81 84 104 104 101 100 100 104 96 100 104
98 78 90 92 89 90 88 91 89 90 92 89 91 104 96 104 100 104 96 96 100 78 79 79 81 78 79 81 79 81 78 81 69 72 72 75 69 75 72 72 75 67 68 68 69 67 67 68 69 67 69 68 67 69 60 60 61 60 61 60 61 60 67 69 72 67 72 69 72 67 69 67 69 67 67 69 88 69 67 69 67 65 69 81 81 83 84 81 81 84 83 81 84 104 104 101 100 100 104 96 100 104
99 76 89 90 87 89 87 90 87 89 90 87 90 102 94 102 98 102 94 94 98 76 77 77 79 76 77 79 77 79 76 79 67 70 70 73 67 73 70 70 73 65 66 66 67 65 65 66 67 65 67 66 65 67 58 58 59 58 59 58 59 58 65 67 70 65 70 67 70 65 67 65 67 65 65 67 87 67 65 67 65 63 67 79 79 82 83 79 79 83 82 79 83 102 102 100 98 98 102 94 98 102
100 74 87 89 85 87 85 88 85 87 89 85 88 101 93 101 97 101 93 93 97 74 75 75 77 74 75 77 75 77 74 77 65 68 68 71 65 71 68 68 71 62 63 63 65 62 62 63 65 62 65 63 62 65 55 55 57 55 57 55 57 55 62 65 68 62 68 65 68 62 65 62 65 62 62 65 85 65 62 65 62 60 65 77 77 79 81 77 77 81 79 77 81 101 101 98 97 97 101 93 97 101
101 74 87 89 85 87 85 88 85 87 89 85 88 101 93 101 97 101 93 93 97 74 75 75 77 74 75 77 75 77 74 77 65 68 68 71 65 71 68 68 71 62 63 63 65 62 62 63 65 62 65 63 62 65 55 55 57 55 57 55 57 55 62 65 68 62 68 65 68 62 65 62 65 62 62 65 85 65 62 65 62 60 65 77 77 79 81 77 77 81 79 77 81 101 101 98 97 97 101 93 97 101
;
